solution status: time limit reached
objective value:                     6.00001575539434
shell_j_$_179__0                                    1 	(obj:0)
shell_j_$_48__0                                     1 	(obj:0)
shell_j_$_250__0                                    1 	(obj:0)
shell_j_$_41__0                                     1 	(obj:0)
shell_j_$_246__0                                    1 	(obj:0)
shell_j_$_173__0                                    1 	(obj:0)
shell_j_$_57__0                                     1 	(obj:0)
shell_j_$_156__0                                    1 	(obj:0)
shell_j_$_70__0                                     1 	(obj:0)
shell_j_$_164__0                                    1 	(obj:0)
shell_j_$_247__0                                    1 	(obj:0)
shell_j_$_30__0                                     1 	(obj:0)
shell_j_$_44__0                                     1 	(obj:0)
shell_j_$_66__0                                     1 	(obj:0)
shell_j_$_199__0                                    1 	(obj:0)
shell_j_$_249__0                                    1 	(obj:0)
shell_j_$_174__0                                    1 	(obj:0)
shell_j_$_267__0                                    1 	(obj:0)
shell_j_$_255__0                                    1 	(obj:0)
shell_j_$_37__0                                     1 	(obj:0)
shell_j_$_213__0                                    1 	(obj:0)
shell_j_$_215__0                                    1 	(obj:0)
shell_j_$_36__0                                     1 	(obj:0)
shell_j_$_71__0                                     1 	(obj:0)
shell_j_$_34__0                                     1 	(obj:0)
shell_j_$_268__0                                    1 	(obj:0)
shell_j_$_172__0                                    1 	(obj:0)
shell_j_$_195__0                                    1 	(obj:0)
shell_j_$_232__0                                    1 	(obj:0)
shell_j_$_72                                        1 	(obj:0)
shell_j_$_167__0                                    1 	(obj:0)
shell_i_$_40__0                                     1 	(obj:0)
shell_j_$_38__0                                     1 	(obj:0)
shell_j_$_56__0                                     1 	(obj:0)
shell_j_$_193__0                                    1 	(obj:0)
shell_j_$_62__0                                     1 	(obj:0)
shell_j_$_59__0                                     1 	(obj:0)
shell_j_$_67__0                                     1 	(obj:0)
shell_j_$_205__0                                    1 	(obj:0)
shell_j_$_165__0                                    1 	(obj:0)
shell_j_$_33__0                                     1 	(obj:0)
shell_j_$_222__0                                    1 	(obj:0)
shell_i_$_183__0                                    1 	(obj:0)
shell_j_$_226__0                                    1 	(obj:0)
shell_j_$_243__0                                    1 	(obj:0)
shell_j_$_206__0                                    1 	(obj:0)
shell_j_$_254__0                                    1 	(obj:0)
shell_j_$_154__0                                    1 	(obj:0)
shell_j_$_260__0                                    1 	(obj:0)
shell_i_$_51__0                                     1 	(obj:0)
shell_j_$_32__0                                     1 	(obj:0)
shell_j_$_244__0                                    1 	(obj:0)
shell_j_$_43__0                                     1 	(obj:0)
shell_j_$_211__0                                    1 	(obj:0)
shell_j_$_224__0                                    1 	(obj:0)
shell_i_$_45__0                                     1 	(obj:0)
shell_j_$_65__0                                     1 	(obj:0)
shell_j_$_191__0                                    1 	(obj:0)
shell_j_$_265__0                                    1 	(obj:0)
shell_j_$_63__0                                     1 	(obj:0)
shell_j_$_53__0                                     1 	(obj:0)
shell_j_$_47                                        1 	(obj:0)
shell_j_$_214__0                                    1 	(obj:0)
shell_j_$_256__0                                    1 	(obj:0)
shell_j_$_275__0                                    1 	(obj:0)
shell_j_$_58__0                                     1 	(obj:0)
shell_j_$_158__0                                    1 	(obj:0)
shell_i_$_186__0                                    1 	(obj:0)
shell_j_$_73__0                                     1 	(obj:0)
shell_j_$_162__0                                    1 	(obj:0)
shell_j_$_152__0                                    1 	(obj:0)
shell_j_$_258__0                                    1 	(obj:0)
shell_j_$_203__0                                    1 	(obj:0)
shell_j_$_219__0                                    1 	(obj:0)
shell_i_$_204__0                                    1 	(obj:0)
shell_j_$_168__0                                    1 	(obj:0)
shell_j_$_261__0                                    1 	(obj:0)
shell_j_$_64__0                                     1 	(obj:0)
shell_j_$_245__0                                    1 	(obj:0)
shell_j_$_234__0                                    1 	(obj:0)
shell_j_$_240__0                                    1 	(obj:0)
shell_j_$_68__0                                     1 	(obj:0)
shell_j_$_176__0                                    1 	(obj:0)
shell_j_$_150__0                                    1 	(obj:0)
shell_j_$_184__0                                    1 	(obj:0)
shell_j_$_236__0                                    1 	(obj:0)
shell_j_$_209__0                                    1 	(obj:0)
shell_j_$_197__0                                    1 	(obj:0)
shell_j_$_35__0                                     1 	(obj:0)
shell_i_$_50                                        1 	(obj:0)
shell_j_$_60__0                                     1 	(obj:0)
shell_j_$_55__0                                     1 	(obj:0)
shell_j_$_238__0                                    1 	(obj:0)
shell_j_$_227__0                                    1 	(obj:0)
shell_j_$_208__0                                    1 	(obj:0)
shell_j_$_42__0                                     1 	(obj:0)
shell_j_$_39__0                                     1 	(obj:0)
shell_j_$_263__0                                    1 	(obj:0)
shell_j_$_202__0                                    1 	(obj:0)
shell_i_$_163__0                                    1 	(obj:0)
shell_j_$_185__0                                    1 	(obj:0)
shell_j_$_69                                        1 	(obj:0)
shell_j_$_252__0                                    1 	(obj:0)
shell_j_$_273__0                                    1 	(obj:0)
shell_j_$_52__0                                     1 	(obj:0)
shell_j_$_46__0                                     1 	(obj:0)
shell_j_$_49__0                                     1 	(obj:0)
shell_i_$_181__0                                    1 	(obj:0)
shell_i_$_178__0                                    1 	(obj:0)
shell_j_$_220__0                                    1 	(obj:0)
shell_j_$_266__0                                    1 	(obj:0)
shell_j_$_217__0                                    1 	(obj:0)
shell_j_$_161__0                                    1 	(obj:0)
shell_j_$_54__0                                     1 	(obj:0)
shell_j_$_225__0                                    1 	(obj:0)
shell_j_$_61__0                                     1 	(obj:0)
shell_j_$_31__0                                     1 	(obj:0)
shell_i_$_170__0                                    1 	(obj:0)
$_154__0_y                                          2 	(obj:0)
$_154__0_z                          -20.0000000950455 	(obj:0)
$_156__0_z                                         -1 	(obj:0)
$_37__0_x                                           1 	(obj:0)
$_260__0_x                                         -2 	(obj:0)
$_260__0_y                                          2 	(obj:0)
$_260__0_z                                         -5 	(obj:0)
$_37__0_y                                          -2 	(obj:0)
$_37__0_z                                          -1 	(obj:0)
$_51__0_x                                          -2 	(obj:0)
$_51__0_z                                         -13 	(obj:0)
$_48__0_x                                          -2 	(obj:0)
$_41__0_x                                          -2 	(obj:0)
$_32__0_x                                           2 	(obj:0)
$_32__0_y                                           2 	(obj:0)
$_32__0_z                                         -16 	(obj:0)
$_213__0_y                                         -2 	(obj:0)
$_244__0_x                                          2 	(obj:0)
$_244__0_y                                          2 	(obj:0)
$_244__0_z                                          6 	(obj:0)
$_213__0_z                                         -4 	(obj:0)
$_70__0_x                                          -2 	(obj:0)
$_43__0_x                                           2 	(obj:0)
$_43__0_y                                          -2 	(obj:0)
$_43__0_z                           -18.9999999099544 	(obj:0)
$_70__0_y                                           2 	(obj:0)
$_215__0_x                                         -2 	(obj:0)
$_211__0_y                                          2 	(obj:0)
$_211__0_z                                         -4 	(obj:0)
$_215__0_y                                          2 	(obj:0)
$_215__0_z                                        -13 	(obj:0)
$_224__0_x                                          2 	(obj:0)
$_224__0_y                                         -2 	(obj:0)
$_224__0_z                                         -2 	(obj:0)
$_70__0_z                                          -7 	(obj:0)
$_41__0_y                                           2 	(obj:0)
$_45__0_x                                          -2 	(obj:0)
$_45__0_y                                           2 	(obj:0)
$_45__0_z                                          -6 	(obj:0)
$_36__0_x                                          -1 	(obj:0)
$_36__0_y                                          -2 	(obj:0)
$_65__0_x                                           2 	(obj:0)
$_65__0_y                                          -2 	(obj:0)
$_65__0_z                                          11 	(obj:0)
$_36__0_z                                          -9 	(obj:0)
$_41__0_z                                         -19 	(obj:0)
$_191__0_y                                         -2 	(obj:0)
$_191__0_z                                         -2 	(obj:0)
$_164__0_x                                         -2 	(obj:0)
$_71__0_x                                          -2 	(obj:0)
$_265__0_x                                         -2 	(obj:0)
$_265__0_y                                         -2 	(obj:0)
$_265__0_z                           6.00000002876102 	(obj:0)
$_71__0_y                                           2 	(obj:0)
$_71__0_z                                          -3 	(obj:0)
$_63__0_x                                           2 	(obj:0)
$_63__0_y                                          -2 	(obj:0)
$_63__0_z                                          -7 	(obj:0)
$_164__0_y                                         -2 	(obj:0)
$_164__0_z                          -6.99999999486682 	(obj:0)
$_53__0_x                                           2 	(obj:0)
$_53__0_y                                           2 	(obj:0)
$_53__0_z                                           2 	(obj:0)
$_34__0_x                                          -2 	(obj:0)
$_34__0_y                                           2 	(obj:0)
$_47_x                                             -2 	(obj:0)
$_47_y                                              2 	(obj:0)
$_47_z                              -20.0000000951239 	(obj:0)
$_34__0_z                           -13.9999999978241 	(obj:0)
$_48__0_y                                           2 	(obj:0)
$_214__0_x                                          2 	(obj:0)
$_214__0_y                                         -2 	(obj:0)
$_214__0_z                                        -14 	(obj:0)
$_48__0_z                           -17.0000000017257 	(obj:0)
$_268__0_x                                          2 	(obj:0)
$_256__0_x                                         -2 	(obj:0)
$_256__0_y                                          2 	(obj:0)
$_256__0_z                          -10.0000000070439 	(obj:0)
$_268__0_y                                         -2 	(obj:0)
$_268__0_z                                          1 	(obj:0)
$_275__0_x                                         -1 	(obj:0)
$_275__0_y                                         -2 	(obj:0)
$_275__0_z                          -6.99999999853346 	(obj:0)
$_247__0_x                                          2 	(obj:0)
$_247__0_y                                          2 	(obj:0)
$_58__0_x                                           2 	(obj:0)
$_58__0_y                                          -2 	(obj:0)
$_58__0_z                                         -10 	(obj:0)
$_172__0_x                                          2 	(obj:0)
$_172__0_y                                         -2 	(obj:0)
$_158__0_x                                          2 	(obj:0)
$_158__0_y                                          2 	(obj:0)
$_158__0_z                          -7.00000006767374 	(obj:0)
$_172__0_z                                        -20 	(obj:0)
$_247__0_z                          -6.00000006292724 	(obj:0)
$_186__0_x                                          2 	(obj:0)
$_186__0_y                                         -2 	(obj:0)
$_186__0_z                                        -11 	(obj:0)
$_246__0_x                                          2 	(obj:0)
$_195__0_x                                          2 	(obj:0)
$_73__0_y                                          -2 	(obj:0)
$_195__0_y                                          2 	(obj:0)
$_195__0_z                                         -2 	(obj:0)
$_162__0_x                                          2 	(obj:0)
$_162__0_y                                          2 	(obj:0)
$_162__0_z                                        -22 	(obj:0)
$_246__0_y                                          2 	(obj:0)
$_30__0_x                                          -2 	(obj:0)
$_152__0_x                                         -2 	(obj:0)
$_152__0_y                                         -2 	(obj:0)
$_152__0_z                          -16.0000001341163 	(obj:0)
$_232__0_x                                          2 	(obj:0)
$_232__0_y                                         -2 	(obj:0)
$_258__0_x                                         -2 	(obj:0)
$_258__0_y                                          2 	(obj:0)
$_258__0_z                          -14.9999999958376 	(obj:0)
$_232__0_z                                         -3 	(obj:0)
$_30__0_y                                          -2 	(obj:0)
$_203__0_x                                         -2 	(obj:0)
$_203__0_y                                          2 	(obj:0)
$_203__0_z                                         -2 	(obj:0)
$_30__0_z                                          -2 	(obj:0)
$_72_x                                             -1 	(obj:0)
$_219__0_x                                         -2 	(obj:0)
$_219__0_y                                         -2 	(obj:0)
$_219__0_z                                         -6 	(obj:0)
$_72_y                                             -2 	(obj:0)
$_72_z                              -8.00000000524645 	(obj:0)
$_204__0_x                                         -2 	(obj:0)
$_204__0_z                                        -15 	(obj:0)
$_246__0_z                          -12.9999999695525 	(obj:0)
$_179__0_z                          -17.9999999449575 	(obj:0)
$_168__0_x                                          1 	(obj:0)
$_168__0_y                                         -2 	(obj:0)
$_168__0_z                                         -9 	(obj:0)
$_167__0_x                                         -2 	(obj:0)
$_167__0_y                                          2 	(obj:0)
$_261__0_x                         -0.999999722282071 	(obj:0)
$_261__0_y                                         -2 	(obj:0)
$_261__0_z                                        -11 	(obj:0)
$_167__0_z                          -8.00000000388719 	(obj:0)
$_44__0_x                           -1.99999948972153 	(obj:0)
$_64__0_x                                          -2 	(obj:0)
$_64__0_y                                          -2 	(obj:0)
$_64__0_z                                          22 	(obj:0)
$_44__0_y                                          -2 	(obj:0)
$_40__0_x                                           2 	(obj:0)
$_245__0_x                                         -2 	(obj:0)
$_245__0_y                                         -2 	(obj:0)
$_245__0_z                       -3.16582876820631e-09 	(obj:0)
$_40__0_z                                         -20 	(obj:0)
$_234__0_x                        1.5265472802528e-07 	(obj:0)
$_234__0_y                                         -2 	(obj:0)
$_234__0_z                                        -12 	(obj:0)
$_44__0_z                           -17.0000002301472 	(obj:0)
$_179__0_x                                         -2 	(obj:0)
$_240__0_x                                          1 	(obj:0)
$_240__0_y                                         -2 	(obj:0)
$_240__0_z                                         -3 	(obj:0)
$_38__0_y                                          -2 	(obj:0)
$_68__0_x                                           2 	(obj:0)
$_68__0_y                                          -2 	(obj:0)
$_68__0_z                                          -1 	(obj:0)
$_38__0_z                                          -5 	(obj:0)
$_173__0_x                                          2 	(obj:0)
$_176__0_x                           1.00000001532475 	(obj:0)
$_176__0_y                                          2 	(obj:0)
$_176__0_z                                        -13 	(obj:0)
$_66__0_x                                          -2 	(obj:0)
$_56__0_x                                          -2 	(obj:0)
$_150__0_x                                          2 	(obj:0)
$_150__0_y                                          2 	(obj:0)
$_150__0_z                                        -19 	(obj:0)
$_56__0_y                                          -2 	(obj:0)
$_56__0_z                                          -1 	(obj:0)
$_184__0_x                                         -2 	(obj:0)
$_184__0_y                                         -2 	(obj:0)
$_184__0_z                                        -11 	(obj:0)
$_66__0_y                                          -2 	(obj:0)
$_66__0_z                           -9.99999999960218 	(obj:0)
$_236__0_x                                          2 	(obj:0)
$_236__0_y                                         -2 	(obj:0)
$_236__0_z                                          6 	(obj:0)
$_193__0_y                                         -2 	(obj:0)
$_209__0_x                                         -2 	(obj:0)
$_209__0_y                                         -2 	(obj:0)
$_209__0_z                          -7.99999999308813 	(obj:0)
$_193__0_z                                        -15 	(obj:0)
$_173__0_y                                          2 	(obj:0)
$_197__0_x                                         -2 	(obj:0)
$_197__0_y                                         -2 	(obj:0)
$_197__0_z                                          1 	(obj:0)
$_173__0_z                          -5.00000005115939 	(obj:0)
$_62__0_x                                           2 	(obj:0)
$_35__0_x                                          -2 	(obj:0)
$_35__0_y                                           2 	(obj:0)
$_35__0_z                           -15.9999999970661 	(obj:0)
$_62__0_y                                           2 	(obj:0)
$_62__0_z                           -3.00000000146898 	(obj:0)
$_50_x                                             -2 	(obj:0)
$_50_y                                              1 	(obj:0)
$_50_z                                            -17 	(obj:0)
$_199__0_x                                          2 	(obj:0)
$_199__0_y                                          2 	(obj:0)
$_60__0_x                                           2 	(obj:0)
$_60__0_y                                          -2 	(obj:0)
$_60__0_z                                         -12 	(obj:0)
$_59__0_x                                           2 	(obj:0)
$_59__0_y                                           2 	(obj:0)
$_55__0_x                                          -2 	(obj:0)
$_55__0_y                                          -2 	(obj:0)
$_55__0_z                                           2 	(obj:0)
$_59__0_z                           -9.99999992920624 	(obj:0)
$_199__0_z                          -10.9999999483252 	(obj:0)
$_238__0_x                                          1 	(obj:0)
$_238__0_y                                          2 	(obj:0)
$_238__0_z                                          2 	(obj:0)
$_250__0_x                                         -2 	(obj:0)
$_67__0_x                                           1 	(obj:0)
$_227__0_y                                         -2 	(obj:0)
$_227__0_z                                         -8 	(obj:0)
$_67__0_y                                          -2 	(obj:0)
$_67__0_z                                          -5 	(obj:0)
$_208__0_x                                         -2 	(obj:0)
$_208__0_y                                          2 	(obj:0)
$_208__0_z                          -9.00000000603138 	(obj:0)
$_250__0_y                                         -2 	(obj:0)
$_249__0_x                                         -1 	(obj:0)
$_42__0_x                                          -2 	(obj:0)
$_42__0_y                                          -2 	(obj:0)
$_42__0_z                                         -25 	(obj:0)
$_205__0_x                                          2 	(obj:0)
$_205__0_y                                          2 	(obj:0)
$_39__0_x                                          -2 	(obj:0)
$_39__0_y                                          -2 	(obj:0)
$_39__0_z                           -5.00000000721076 	(obj:0)
$_205__0_z                                        -25 	(obj:0)
$_249__0_y                                          2 	(obj:0)
$_263__0_y                                         -2 	(obj:0)
$_263__0_z                                         -6 	(obj:0)
$_249__0_z                                        -10 	(obj:0)
$_165__0_x                                         -2 	(obj:0)
$_202__0_x                                         -2 	(obj:0)
$_202__0_y                                         -2 	(obj:0)
$_202__0_z                          -13.0000000730847 	(obj:0)
$_165__0_y                                         -2 	(obj:0)
$_165__0_z                          -12.0000000428932 	(obj:0)
$_163__0_x                                          2 	(obj:0)
$_57__0_x                                           2 	(obj:0)
$_57__0_y                                           2 	(obj:0)
$_185__0_x                                          2 	(obj:0)
$_185__0_y                                         -2 	(obj:0)
$_185__0_z                                         -6 	(obj:0)
$_33__0_x                                           2 	(obj:0)
$_33__0_y                                          -2 	(obj:0)
$_69_y                                              2 	(obj:0)
$_69_z                                            -11 	(obj:0)
$_174__0_x                                         -2 	(obj:0)
$_252__0_x                                          2 	(obj:0)
$_252__0_y                                          2 	(obj:0)
$_252__0_z                                         -1 	(obj:0)
$_174__0_y                                          2 	(obj:0)
$_222__0_x                                          1 	(obj:0)
$_273__0_x                                         -2 	(obj:0)
$_273__0_y                                         -2 	(obj:0)
$_273__0_z                           5.00000000764193 	(obj:0)
$_222__0_y                                         -2 	(obj:0)
$_222__0_z                                         -7 	(obj:0)
$_52__0_x                                           2 	(obj:0)
$_52__0_y                                          -2 	(obj:0)
$_52__0_z                                          22 	(obj:0)
$_174__0_z                                        -18 	(obj:0)
$_57__0_z                            -11.999999957685 	(obj:0)
$_46__0_x                                          -2 	(obj:0)
$_46__0_y                                          -2 	(obj:0)
$_46__0_z                                         -20 	(obj:0)
$_183__0_x                                         -2 	(obj:0)
$_49__0_x                                           1 	(obj:0)
$_49__0_y                                           2 	(obj:0)
$_49__0_z                                          -9 	(obj:0)
$_183__0_z                                         -8 	(obj:0)
$_250__0_z                                         -9 	(obj:0)
$_181__0_x                                         -2 	(obj:0)
$_181__0_z                                        -10 	(obj:0)
$_267__0_x                                         -2 	(obj:0)
$_226__0_x                                         -2 	(obj:0)
$_178__0_x                                          2 	(obj:0)
$_178__0_y                                          2 	(obj:0)
$_178__0_z                          -8.00000006905748 	(obj:0)
$_226__0_y                                         -2 	(obj:0)
$_226__0_z                          -3.00000001347688 	(obj:0)
$_220__0_x                                         -2 	(obj:0)
$_220__0_y                                         -2 	(obj:0)
$_220__0_z                          -15.0000001169678 	(obj:0)
$_267__0_y                                         -2 	(obj:0)
$_267__0_z                          -4.00000001225089 	(obj:0)
$_266__0_x                                         -2 	(obj:0)
$_266__0_y                                          2 	(obj:0)
$_266__0_z                                        -12 	(obj:0)
$_243__0_y                                          2 	(obj:0)
$_217__0_x                                         -2 	(obj:0)
$_217__0_y                                          2 	(obj:0)
$_217__0_z                           -11.000000003492 	(obj:0)
$_179__0_y                                         -2 	(obj:0)
$_161__0_x                                          2 	(obj:0)
$_161__0_y                                          2 	(obj:0)
$_161__0_z                          -4.00000001042228 	(obj:0)
$_156__0_x                                          1 	(obj:0)
$_206__0_x                                          2 	(obj:0)
$_54__0_x                                           2 	(obj:0)
$_54__0_y                                          -2 	(obj:0)
$_54__0_z                                           2 	(obj:0)
$_206__0_y                                         -2 	(obj:0)
$_206__0_z                           -8.0000000349382 	(obj:0)
$_225__0_x                                         -2 	(obj:0)
$_225__0_y                                         -2 	(obj:0)
$_225__0_z                          -14.0000000968944 	(obj:0)
$_255__0_x                                          2 	(obj:0)
$_255__0_y                                         -2 	(obj:0)
$_61__0_x                                          -2 	(obj:0)
$_61__0_y                                          -2 	(obj:0)
$_61__0_z                                           4 	(obj:0)
$_254__0_x                                          2 	(obj:0)
$_254__0_y                                          2 	(obj:0)
$_31__0_x                                           2 	(obj:0)
$_31__0_y                                           2 	(obj:0)
$_31__0_z                            -17.000000079772 	(obj:0)
$_254__0_z                                          1 	(obj:0)
$_255__0_z                          -4.99999997994975 	(obj:0)
$_170__0_x                                         -2 	(obj:0)
$_170__0_y                                          1 	(obj:0)
$_170__0_z                                         -4 	(obj:0)
$_156__0_y                                          2 	(obj:0)
$_154__0_x                                          2 	(obj:0)
x593                             9.72400001553391e-08 	(obj:1)
x596                             9.72400002500081e-08 	(obj:1)
x600                               2.044799794392e-07 	(obj:1)
x605                              9.7240000248408e-08 	(obj:1)
x606                             2.04479979397091e-07 	(obj:1)
x609                             2.04479979417062e-07 	(obj:1)
x615                             2.04479979507819e-07 	(obj:1)
x618                             2.04479979636049e-07 	(obj:1)
x620                             2.07075200004103e-07 	(obj:1)
x627                             6.29165452157892e-07 	(obj:1)
x629                             1.39093481392144e-07 	(obj:1)
x630                             2.04479979611916e-07 	(obj:1)
x632                              2.0467586530834e-07 	(obj:1)
x633                              2.0447997943099e-07 	(obj:1)
x635                             9.72400002502438e-08 	(obj:1)
x636                                 1.00000020447998 	(obj:1)
x638                              2.0447997975449e-07 	(obj:1)
x641                             9.72400002525935e-08 	(obj:1)
x647                             9.72400002508411e-08 	(obj:1)
x648                                 1.00000020447998 	(obj:1)
x650                                 2.00000019957294 	(obj:1)
x653                             9.72400002525935e-08 	(obj:1)
x654                             2.04479979458004e-07 	(obj:1)
x656                             2.04479979366489e-07 	(obj:1)
x660                              2.0447997943616e-07 	(obj:1)
x663                             2.04479979368248e-07 	(obj:1)
x665                             2.05372661935243e-07 	(obj:1)
x678                                 1.00000020447998 	(obj:1)
x680                             2.01914581514544e-07 	(obj:1)
x686                             9.72400002525935e-08 	(obj:1)
x698                             9.72400002508084e-08 	(obj:1)
x701                             9.72400002505718e-08 	(obj:1)
x704                             9.72400002525935e-08 	(obj:1)
x713                             2.04479979390827e-07 	(obj:1)
x714                             2.04479979377305e-07 	(obj:1)
x716                             2.04479979366489e-07 	(obj:1)
x728                             9.72400002503848e-08 	(obj:1)
x734                             9.72400002513815e-08 	(obj:1)
x735                             9.72400002525935e-08 	(obj:1)
x736                             2.04479979397632e-07 	(obj:1)
x740                             9.72400002525935e-08 	(obj:1)
x746                             9.72400002525935e-08 	(obj:1)
x749                             9.72400002509116e-08 	(obj:1)
x753                              2.0447997950948e-07 	(obj:1)
x757                             2.04479979362955e-07 	(obj:1)
x764                             2.04479979366489e-07 	(obj:1)
x765                             2.04479979386121e-07 	(obj:1)
x768                             2.04479979412533e-07 	(obj:1)
x771                             2.04479979406656e-07 	(obj:1)
x776                             9.72400002507595e-08 	(obj:1)
x782                                  1.0000000901961 	(obj:1)
x785                             2.05213376720421e-07 	(obj:1)
x786                             2.04479979421497e-07 	(obj:1)
x787                             9.72400002525935e-08 	(obj:1)
x788                             2.04479979366489e-07 	(obj:1)
x789                             2.04479979470947e-07 	(obj:1)
x793                             2.04479979381021e-07 	(obj:1)
x794                             9.72400001975943e-08 	(obj:1)
x795                             9.72400002525935e-08 	(obj:1)
x803                             1.55239658551562e-07 	(obj:1)
x804                             2.04479979379757e-07 	(obj:1)
x806                             2.06284530613546e-07 	(obj:1)
x809                             2.04479979366489e-07 	(obj:1)
x815                             9.72400002525935e-08 	(obj:1)
x819                             4.11510879357098e-07 	(obj:1)
x827                             2.06074258212199e-07 	(obj:1)
x828                             3.05136612713935e-07 	(obj:1)
x836                             2.04479979400461e-07 	(obj:1)
x842                             9.72400002525935e-08 	(obj:1)
x843                             2.04479979383302e-07 	(obj:1)
x848                             9.72400002525935e-08 	(obj:1)
x851                              2.0108181145818e-07 	(obj:1)
x855                             2.04479979848681e-07 	(obj:1)
x857                             9.72400002460152e-08 	(obj:1)
x860                             2.04479979366489e-07 	(obj:1)
x863                             9.72400001906265e-08 	(obj:1)
x869                             9.72400002525935e-08 	(obj:1)
x885                             2.04479979438594e-07 	(obj:1)
x894                             9.72400002525935e-08 	(obj:1)
x896                             9.72400002525935e-08 	(obj:1)
x902                             9.72400002509793e-08 	(obj:1)
x908                             2.04479979621078e-07 	(obj:1)
x911                             9.72400002525935e-08 	(obj:1)
x912                             2.04479979399603e-07 	(obj:1)
x914                             9.72400002525935e-08 	(obj:1)
x917                             1.74801444237353e-07 	(obj:1)
x918                              2.0447997944344e-07 	(obj:1)
x920                             1.58423478771521e-07 	(obj:1)
x927                             2.04479979414997e-07 	(obj:1)
x929                             9.72400001843299e-08 	(obj:1)
x933                              2.0447997940716e-07 	(obj:1)
x935                             1.64722850666986e-07 	(obj:1)
x941                             9.72400002498708e-08 	(obj:1)
